p cnf 412 698
-59 -52 -45 76 0
-59 -52 -45 -76 0
-54 48 -27 77 0
-54 48 -27 -77 0
-35 19 41 78 0
-35 19 41 -78 0
-12 11 -29 79 0
-12 11 -29 -79 0
20 53 50 80 0
20 53 50 -80 0
-6 -7 -4 81 0
-6 -7 -4 -81 0
-34 48 27 82 0
-34 48 27 -82 0
37 54 55 83 0
37 54 55 -83 0
-29 28 16 84 0
-29 28 16 -84 0
44 -30 4 85 0
44 -30 4 -85 0
-45 -65 33 86 0
-45 -65 33 -86 0
-27 -73 74 87 0
-27 -73 74 -87 0
-13 20 72 88 0
-13 20 72 -88 0
73 51 -41 89 0
73 51 -41 -89 0
-40 1 -6 90 0
-40 1 -6 -90 0
69 64 54 91 0
69 64 54 -91 0
-53 -63 -16 92 0
-53 -63 -16 -92 0
-69 -53 -18 93 0
-69 -53 -18 -93 0
-3 -42 -14 94 0
-3 -42 -14 -94 0
20 -19 -47 95 0
20 -19 -47 -95 0
-14 55 54 96 0
-14 55 54 -96 0
10 58 -2 97 0
10 58 -2 -97 0
-23 28 -18 98 0
-23 28 -18 -98 0
4 -20 29 99 0
4 -20 29 -99 0
63 8 27 100 0
63 8 27 -100 0
24 -47 -67 101 0
24 -47 -67 -101 0
17 -48 56 102 0
17 -48 56 -102 0
58 -21 -41 103 0
58 -21 -41 -103 0
63 65 -3 104 0
63 65 -3 -104 0
-25 70 75 105 0
-25 70 75 -105 0
-63 -53 -4 106 0
-63 -53 -4 -106 0
53 71 14 107 0
53 71 14 -107 0
47 -70 33 108 0
47 -70 33 -108 0
-71 -59 8 109 0
-71 -59 8 -109 0
-65 -24 9 110 0
-65 -24 9 -110 0
21 -62 -14 111 0
21 -62 -14 -111 0
65 -19 63 112 0
65 -19 63 -112 0
-16 23 -70 113 0
-16 23 -70 -113 0
-67 31 -49 114 0
-67 31 -49 -114 0
15 19 -72 115 0
15 19 -72 -115 0
-60 -28 58 116 0
-60 -28 58 -116 0
-67 -41 43 117 0
-67 -41 43 -117 0
-54 61 43 118 0
-54 61 43 -118 0
40 26 -34 119 0
40 26 -34 -119 0
-62 -39 6 120 0
-62 -39 6 -120 0
54 -46 40 121 0
54 -46 40 -121 0
61 35 57 122 0
61 35 57 -122 0
48 -68 -12 123 0
48 -68 -12 -123 0
-18 6 71 124 0
-18 6 71 -124 0
-38 -6 -59 125 0
-38 -6 -59 -125 0
55 43 -16 126 0
55 43 -16 -126 0
36 65 20 127 0
36 65 20 -127 0
-44 66 -26 128 0
-44 66 -26 -128 0
26 -23 73 129 0
26 -23 73 -129 0
41 36 23 130 0
41 36 23 -130 0
69 59 -54 131 0
69 59 -54 -131 0
69 -39 -47 132 0
69 -39 -47 -132 0
-47 25 -56 133 0
-47 25 -56 -133 0
-64 -31 10 134 0
-64 -31 10 -134 0
4 -17 -44 135 0
4 -17 -44 -135 0
37 -35 31 136 0
37 -35 31 -136 0
-72 -38 -73 137 0
-72 -38 -73 -137 0
33 23 3 138 0
33 23 3 -138 0
75 -8 39 139 0
75 -8 39 -139 0
-17 74 -32 140 0
-17 74 -32 -140 0
-32 61 62 141 0
-32 61 62 -141 0
-71 39 -18 142 0
-71 39 -18 -142 0
71 -37 73 143 0
71 -37 73 -143 0
9 -64 -44 144 0
9 -64 -44 -144 0
33 56 14 145 0
33 56 14 -145 0
49 -65 -43 146 0
49 -65 -43 -146 0
-55 60 8 147 0
-55 60 8 -147 0
-67 19 -60 148 0
-67 19 -60 -148 0
-70 -37 29 149 0
-70 -37 29 -149 0
22 11 -68 150 0
22 11 -68 -150 0
46 2 -62 151 0
46 2 -62 -151 0
-57 16 -35 152 0
-57 16 -35 -152 0
-12 -5 2 153 0
-12 -5 2 -153 0
-35 65 -66 154 0
-35 65 -66 -154 0
-75 49 55 155 0
-75 49 55 -155 0
-64 -55 -9 156 0
-64 -55 -9 -156 0
-25 -50 -60 157 0
-25 -50 -60 -157 0
-43 -50 -2 158 0
-43 -50 -2 -158 0
-75 -5 61 159 0
-75 -5 61 -159 0
34 -68 -62 160 0
34 -68 -62 -160 0
21 47 -51 161 0
21 47 -51 -161 0
-73 46 -18 162 0
-73 46 -18 -162 0
-55 -74 31 163 0
-55 -74 31 -163 0
-54 43 -6 164 0
-54 43 -6 -164 0
-52 67 -66 165 0
-52 67 -66 -165 0
34 -26 -21 166 0
34 -26 -21 -166 0
52 -13 -70 167 0
52 -13 -70 -167 0
-15 43 6 168 0
-15 43 6 -168 0
50 54 12 169 0
50 54 12 -169 0
64 3 -1 170 0
64 3 -1 -170 0
-61 34 70 171 0
-61 34 70 -171 0
-46 65 50 172 0
-46 65 50 -172 0
15 39 -60 173 0
15 39 -60 -173 0
-28 9 -48 174 0
-28 9 -48 -174 0
-49 11 -62 175 0
-49 11 -62 -175 0
23 24 -29 176 0
23 24 -29 -176 0
55 64 -32 177 0
55 64 -32 -177 0
46 -43 -20 178 0
46 -43 -20 -178 0
-26 -16 63 179 0
-26 -16 63 -179 0
-57 28 -20 180 0
-57 28 -20 -180 0
-39 -25 5 181 0
-39 -25 5 -181 0
-35 -22 -11 182 0
-35 -22 -11 -182 0
-47 -21 -7 183 0
-47 -21 -7 -183 0
45 -1 -11 184 0
45 -1 -11 -184 0
-42 56 18 185 0
-42 56 18 -185 0
-43 -64 44 186 0
-43 -64 44 -186 0
70 16 32 187 0
70 16 32 -187 0
-44 -54 27 188 0
-44 -54 27 -188 0
-45 -15 3 189 0
-45 -15 3 -189 0
-45 -13 57 190 0
-45 -13 57 -190 0
-6 41 -69 191 0
-6 41 -69 -191 0
60 8 -66 192 0
60 8 -66 -192 0
-24 56 51 193 0
-24 56 51 -193 0
-52 -74 35 194 0
-52 -74 35 -194 0
55 22 19 195 0
55 22 19 -195 0
42 -14 -57 196 0
42 -14 -57 -196 0
11 -48 2 197 0
11 -48 2 -197 0
-72 -12 69 198 0
-72 -12 69 -198 0
67 39 -22 199 0
67 39 -22 -199 0
-32 73 21 200 0
-32 73 21 -200 0
-67 1 44 201 0
-67 1 44 -201 0
-44 -46 -4 202 0
-44 -46 -4 -202 0
-59 43 -5 203 0
-59 43 -5 -203 0
1 7 -30 204 0
1 7 -30 -204 0
-21 -65 45 205 0
-21 -65 45 -205 0
-72 32 -4 206 0
-72 32 -4 -206 0
-71 49 -11 207 0
-71 49 -11 -207 0
-67 -2 -25 208 0
-67 -2 -25 -208 0
62 55 46 209 0
62 55 46 -209 0
62 -22 68 210 0
62 -22 68 -210 0
34 59 -64 211 0
34 59 -64 -211 0
2 19 -42 212 0
2 19 -42 -212 0
68 10 -61 213 0
68 10 -61 -213 0
56 67 19 214 0
56 67 19 -214 0
30 69 41 215 0
30 69 41 -215 0
-55 59 13 216 0
-55 59 13 -216 0
37 22 -56 217 0
37 22 -56 -217 0
-63 -26 8 218 0
-63 -26 8 -218 0
13 -23 4 219 0
13 -23 4 -219 0
52 4 3 220 0
52 4 3 -220 0
-46 -6 11 221 0
-46 -6 11 -221 0
-20 11 52 222 0
-20 11 52 -222 0
73 -1 35 223 0
73 -1 35 -223 0
18 62 -24 224 0
18 62 -24 -224 0
30 70 1 225 0
30 70 1 -225 0
-61 -58 32 226 0
-61 -58 32 -226 0
27 -61 17 227 0
27 -61 17 -227 0
-13 -58 32 228 0
-13 -58 32 -228 0
-49 5 68 229 0
-49 5 68 -229 0
-70 56 6 230 0
-70 56 6 -230 0
-21 -74 -1 231 0
-21 -74 -1 -231 0
59 20 27 232 0
59 20 27 -232 0
-32 36 -70 233 0
-32 36 -70 -233 0
-69 -57 63 234 0
-69 -57 63 -234 0
73 -48 68 235 0
73 -48 68 -235 0
21 -63 -4 236 0
21 -63 -4 -236 0
62 24 -18 237 0
62 24 -18 -237 0
26 -56 2 238 0
26 -56 2 -238 0
-3 38 -67 239 0
-3 38 -67 -239 0
-4 21 -19 240 0
-4 21 -19 -240 0
2 -45 49 241 0
2 -45 49 -241 0
4 -52 -38 242 0
4 -52 -38 -242 0
-62 16 43 243 0
-62 16 43 -243 0
-74 39 -49 244 0
-74 39 -49 -244 0
-36 32 -17 245 0
-36 32 -17 -245 0
40 30 -10 246 0
40 30 -10 -246 0
-26 -40 -52 247 0
-26 -40 -52 -247 0
50 48 59 248 0
50 48 59 -248 0
29 35 58 249 0
29 35 58 -249 0
73 -61 -44 250 0
73 -61 -44 -250 0
-56 3 -27 251 0
-56 3 -27 -251 0
-65 41 27 252 0
-65 41 27 -252 0
-10 4 59 253 0
-10 4 59 -253 0
-12 -49 55 254 0
-12 -49 55 -254 0
-7 -48 64 255 0
-7 -48 64 -255 0
-47 44 -31 256 0
-47 44 -31 -256 0
60 -24 -11 257 0
60 -24 -11 -257 0
23 -75 -42 258 0
23 -75 -42 -258 0
26 -3 36 259 0
26 -3 36 -259 0
-9 -4 -59 260 0
-9 -4 -59 -260 0
25 -15 55 261 0
25 -15 55 -261 0
7 -71 -35 262 0
7 -71 -35 -262 0
-40 -60 41 263 0
-40 -60 41 -263 0
72 -54 -64 264 0
72 -54 -64 -264 0
10 55 58 265 0
10 55 58 -265 0
31 57 44 266 0
31 57 44 -266 0
-35 9 -13 267 0
-35 9 -13 -267 0
69 65 58 268 0
69 65 58 -268 0
-62 32 -13 269 0
-62 32 -13 -269 0
49 -42 44 270 0
49 -42 44 -270 0
60 4 -57 271 0
60 4 -57 -271 0
-45 -49 69 272 0
-45 -49 69 -272 0
55 -37 -10 273 0
55 -37 -10 -273 0
71 57 1 274 0
71 57 1 -274 0
-73 5 -75 275 0
-73 5 -75 -275 0
42 -21 -51 276 0
42 -21 -51 -276 0
7 -18 39 277 0
7 -18 39 -277 0
20 54 -44 278 0
20 54 -44 -278 0
-73 11 -22 279 0
-73 11 -22 -279 0
31 -17 58 280 0
31 -17 58 -280 0
-2 -24 39 281 0
-2 -24 39 -281 0
43 -54 30 282 0
43 -54 30 -282 0
-13 73 8 283 0
-13 73 8 -283 0
-22 24 -33 284 0
-22 24 -33 -284 0
21 53 -69 285 0
21 53 -69 -285 0
-21 -9 -1 286 0
-21 -9 -1 -286 0
72 29 25 287 0
72 29 25 -287 0
-55 47 1 288 0
-55 47 1 -288 0
-10 50 -51 289 0
-10 50 -51 -289 0
20 -37 -50 290 0
20 -37 -50 -290 0
-65 61 -45 291 0
-65 61 -45 -291 0
-5 -61 -67 292 0
-5 -61 -67 -292 0
10 65 -34 293 0
10 65 -34 -293 0
12 -67 10 294 0
12 -67 10 -294 0
66 38 43 295 0
66 38 43 -295 0
-16 -9 -22 296 0
-16 -9 -22 -296 0
26 64 45 297 0
26 64 45 -297 0
64 -36 -23 298 0
64 -36 -23 -298 0
66 -11 31 299 0
66 -11 31 -299 0
-30 -29 57 300 0
-30 -29 57 -300 0
-29 -74 -10 301 0
-29 -74 -10 -301 0
34 9 59 302 0
34 9 59 -302 0
-36 14 -46 303 0
-36 14 -46 -303 0
-23 26 55 304 0
-23 26 55 -304 0
-72 -55 47 305 0
-72 -55 47 -305 0
-54 -5 29 306 0
-54 -5 29 -306 0
-57 14 -21 307 0
-57 14 -21 -307 0
50 52 59 308 0
50 52 59 -308 0
-65 57 -45 309 0
-65 57 -45 -309 0
61 31 51 310 0
61 31 51 -310 0
63 -62 31 311 0
63 -62 31 -311 0
-29 -31 -24 312 0
-29 -31 -24 -312 0
19 -45 -16 313 0
19 -45 -16 -313 0
-21 54 -32 314 0
-21 54 -32 -314 0
61 -8 23 315 0
61 -8 23 -315 0
62 -28 -18 316 0
62 -28 -18 -316 0
-29 -72 22 317 0
-29 -72 22 -317 0
17 -63 -61 318 0
17 -63 -61 -318 0
-7 -10 -29 319 0
-7 -10 -29 -319 0
-30 61 58 320 0
-30 61 58 -320 0
8 51 26 321 0
8 51 26 -321 0
55 -16 -39 322 0
55 -16 -39 -322 0
48 -49 42 323 0
48 -49 42 -323 0
-11 -48 46 324 0
-11 -48 46 -324 0
-4 33 -56 325 0
-4 33 -56 -325 0
62 2 14 326 0
62 2 14 -326 0
67 36 -69 327 0
67 36 -69 -327 0
70 16 74 328 0
70 16 74 -328 0
-5 2 -59 329 0
-5 2 -59 -329 0
-11 -26 43 330 0
-11 -26 43 -330 0
-51 -53 -45 331 0
-51 -53 -45 -331 0
54 -34 -68 332 0
54 -34 -68 -332 0
-70 49 57 333 0
-70 49 57 -333 0
-3 -11 15 334 0
-3 -11 15 -334 0
48 -74 -62 335 0
48 -74 -62 -335 0
46 38 16 336 0
46 38 16 -336 0
14 4 48 337 0
14 4 48 -337 0
48 -74 1 338 0
48 -74 1 -338 0
-42 -70 17 339 0
-42 -70 17 -339 0
18 -28 -3 340 0
18 -28 -3 -340 0
-43 13 -28 341 0
-43 13 -28 -341 0
-73 -42 -56 342 0
-73 -42 -56 -342 0
-72 -21 -58 343 0
-72 -21 -58 -343 0
4 -17 45 344 0
4 -17 45 -344 0
25 16 53 345 0
25 16 53 -345 0
-17 -64 -33 346 0
-17 -64 -33 -346 0
21 44 -27 347 0
21 44 -27 -347 0
-60 10 -21 348 0
-60 10 -21 -348 0
-19 11 12 349 0
-19 11 12 -349 0
-14 55 -26 350 0
-14 55 -26 -350 0
-12 -23 34 351 0
-12 -23 34 -351 0
-30 13 -50 352 0
-30 13 -50 -352 0
-56 73 -1 353 0
-56 73 -1 -353 0
-59 -15 7 354 0
-59 -15 7 -354 0
-61 24 42 355 0
-61 24 42 -355 0
63 -54 -47 356 0
63 -54 -47 -356 0
-61 -57 26 357 0
-61 -57 26 -357 0
23 68 11 358 0
23 68 11 -358 0
19 -17 -30 359 0
19 -17 -30 -359 0
42 49 -23 360 0
42 49 -23 -360 0
-20 -13 31 361 0
-20 -13 31 -361 0
-43 -30 -57 362 0
-43 -30 -57 -362 0
7 -19 44 363 0
7 -19 44 -363 0
-33 60 18 364 0
-33 60 18 -364 0
61 -52 55 365 0
61 -52 55 -365 0
60 -4 -17 366 0
60 -4 -17 -366 0
-16 38 15 367 0
-16 38 15 -367 0
49 -37 -29 368 0
49 -37 -29 -368 0
19 -12 -55 369 0
19 -12 -55 -369 0
-42 59 22 370 0
-42 59 22 -370 0
-51 29 43 371 0
-51 29 43 -371 0
7 61 -42 372 0
7 61 -42 -372 0
-54 53 6 373 0
-54 53 6 -373 0
-15 -43 -56 374 0
-15 -43 -56 -374 0
-17 24 12 375 0
-17 24 12 -375 0
65 -33 -57 376 0
65 -33 -57 -376 0
73 27 -68 377 0
73 27 -68 -377 0
66 9 -42 378 0
66 9 -42 -378 0
65 -31 -30 379 0
65 -31 -30 -379 0
47 12 -69 380 0
47 12 -69 -380 0
72 33 40 381 0
72 33 40 -381 0
8 -44 -20 382 0
8 -44 -20 -382 0
11 -56 32 383 0
11 -56 32 -383 0
-22 55 43 384 0
-22 55 43 -384 0
31 -61 27 385 0
31 -61 27 -385 0
-7 -65 60 386 0
-7 -65 60 -386 0
73 7 46 387 0
73 7 46 -387 0
-8 -37 -74 388 0
-8 -37 -74 -388 0
52 -15 -43 389 0
52 -15 -43 -389 0
-35 -22 43 390 0
-35 -22 43 -390 0
-14 51 25 391 0
-14 51 25 -391 0
-1 19 -30 392 0
-1 19 -30 -392 0
-65 43 18 393 0
-65 43 18 -393 0
51 58 26 394 0
51 58 26 -394 0
-75 37 38 395 0
-75 37 38 -395 0
3 38 58 396 0
3 38 58 -396 0
51 37 -23 397 0
51 37 -23 -397 0
62 -73 25 398 0
62 -73 25 -398 0
-16 -36 15 399 0
-16 -36 15 -399 0
58 54 21 400 0
58 54 21 -400 0
401 402 403 404 0
401 402 403 -404 0
401 402 -403 404 0
401 402 -403 -404 0
401 -402 403 404 0
401 -402 403 -404 0
401 -402 -403 404 0
401 -402 -403 -404 0
-401 402 403 404 0
-401 402 403 -404 0
-401 402 -403 404 0
-401 402 -403 -404 0
-401 -402 403 404 0
-401 -402 403 -404 0
-401 -402 -403 404 0
-401 -402 -403 -404 0
405 406 407 408 0
405 406 407 -408 0
405 406 -407 408 0
405 406 -407 -408 0
405 -406 407 408 0
405 -406 407 -408 0
405 -406 -407 408 0
405 -406 -407 -408 0
-405 406 407 408 0
-405 406 407 -408 0
-405 406 -407 408 0
-405 406 -407 -408 0
-405 -406 407 408 0
-405 -406 407 -408 0
-405 -406 -407 408 0
-405 -406 -407 -408 0
409 410 411 412 0
409 410 411 -412 0
409 410 -411 412 0
409 410 -411 -412 0
409 -410 411 412 0
409 -410 411 -412 0
409 -410 -411 412 0
409 -410 -411 -412 0
-409 410 411 412 0
-409 410 411 -412 0
-409 410 -411 412 0
-409 410 -411 -412 0
-409 -410 411 412 0
-409 -410 411 -412 0
-409 -410 -411 412 0
-409 -410 -411 -412 0
